
Gurobi 11.0.1 (win64) logging started Mon May 13 15:36:37 2024

Set parameter LogFile to value "output/solver_log5.txt"
Gurobi Optimizer version 11.0.1 build v11.0.1rc0 (win64 - Windows 11.0 (22631.2))

CPU model: 11th Gen Intel(R) Core(TM) i7-1165G7 @ 2.80GHz, instruction set [SSE2|AVX|AVX2|AVX512]
Thread count: 4 physical cores, 8 logical processors, using up to 8 threads

Optimize a model with 2141 rows, 386 columns and 39217 nonzeros
Model fingerprint: 0xc5724a3a
Variable types: 248 continuous, 138 integer (138 binary)
Coefficient statistics:
  Matrix range     [4e-01, 1e+05]
  Objective range  [1e+00, 1e+02]
  Bounds range     [1e+00, 1e+00]
  RHS range        [1e-02, 1e+05]

User MIP start produced solution with objective 75090.3 (0.01s)
Loaded user MIP start with objective 75090.3

Presolve removed 104 rows and 103 columns
Presolve time: 0.05s
Presolved: 2037 rows, 283 columns, 38642 nonzeros
Variable types: 228 continuous, 55 integer (55 binary)

Root relaxation: cutoff, 18 iterations, 0.01 seconds (0.01 work units)

    Nodes    |    Current Node    |     Objective Bounds      |     Work
 Expl Unexpl |  Obj  Depth IntInf | Incumbent    BestBd   Gap | It/Node Time

     0     0     cutoff    0      75090.3279 75090.3279  0.00%     -    0s

Explored 1 nodes (18 simplex iterations) in 0.12 seconds (0.17 work units)
Thread count was 8 (of 8 available processors)

Solution count 2: 75090.3 75090.3 

Optimal solution found (tolerance 1.00e-04)
Best objective 7.509032794165e+04, best bound 7.509032794165e+04, gap 0.0000%
